15
45
635
701
808
632
798
783
617
718
675
705
638
730
624
711
1310
559	321
621	921
258	584
788	610
299	377
312	125
348	788
988	903
689	501
493	647
78	986
506	155
304	752
863	125
178	236
544	654
321	350
268	992
817	946
53	442
740	914
940	528
266	606
503	690
625	358
382	990
159	369
470	376
986	183
828	16
256	436
219	621
11	397
74	881
861	832
845	101
105	775
410	535
232	446
795	32
739	126
832	371
636	72
561	707
409	509
